cliques=[{2,1,10,7,9,6,14,11,4,12,5,0,8,3,13},{2,1,10,7,9,6,14,11,4,12,5,0,8,3,13},{2,1,10,7,9,6,14,11,4,12,5,0,8,3,13},{2,1,10,7,9,6,14,11,4,12,5,0,8,3,13},{2,1,10,7,9,6,14,11,4,12,5,0,8,3,13},{2,1,10,7,9,6,14,11,4,12,5,0,8,3,13},{2,1,10,7,9,6,14,11,4,12,5,0,8,3,13},{2,1,10,7,9,6,14,11,4,12,5,0,8,3,13},{2,1,10,7,9,6,14,11,4,12,5,0,8,3,13},{2,1,10,7,9,6,14,11,4,12,5,0,8,3,13},{2,1,10,7,9,6,14,11,4,12,5,0,8,3,13},{2,1,10,7,9,6,14,11,4,12,5,0,8,3,13},{2,1,10,7,9,6,14,11,4,12,5,0,8,3,13},{2,1,10,7,9,6,14,11,4,12,5,0,8,3,13},{2,1,10,7,9,6,14,11,4,12,5,0,8,3,13},{15,148,56,67,109,171,0,185,160,27,136,121,98,83,47},{23,15,26,22,24,21,20,25,18,19,17,16},{23,15,26,22,24,21,20,25,18,19,17,16},{23,15,26,22,24,21,20,25,18,19,17,16},{23,15,26,22,24,21,20,25,18,19,17,16},{128,33,7,103,142,78,20,204,41,61,90,176,164},{23,15,26,22,24,21,20,25,18,19,17,16},{177,63,22,43,9,153,79,206,91,129,192,144,115,104},{23,10,93,51,145,194,208,155,179,44,131,167},{23,15,26,22,24,21,20,25,18,19,17,16},{23,15,26,22,24,21,20,25,18,19,17,16},{23,15,26,22,24,21,20,25,18,19,17,16},{15,148,56,67,109,171,0,185,160,27,136,121,98,83,47},{1,137,200,28,110,57,122,74,84,48,149,16},{34,33,30,29,28,36,35,31,27,32},{38,30,124,86,161,150,99,188,4,49,58},{34,33,30,29,28,36,35,31,27,32},{203,151,126,174,60,5,140,163,88,39,32,101,77,190},{128,33,7,103,142,78,20,204,41,61,90,176,164},{34,168,195,24,80,11,156,146,180,52,132,94,117},{34,33,30,29,28,36,35,31,27,32},{169,197,45,65,182,96,12,36,210,133,119,157,71},{38,45,43,42,46,44,37,41,40,39},{38,30,124,86,161,150,99,188,4,49,58},{203,151,126,174,60,5,140,163,88,39,32,101,77,190},{38,45,43,42,46,44,37,41,40,39},{128,33,7,103,142,78,20,204,41,61,90,176,164},{38,45,43,42,46,44,37,41,40,39},{177,63,22,43,9,153,79,206,91,129,192,144,115,104},{23,10,93,51,145,194,208,155,179,44,131,167},{169,197,45,65,182,96,12,36,210,133,119,157,71},{26,46,135,14,55,120,212,73,184,159,82,108,199},{15,148,56,67,109,171,0,185,160,27,136,121,98,83,47},{1,137,200,28,110,57,122,74,84,48,149,16},{38,30,124,86,161,150,99,188,4,49,58},{50,21,42,143,152,165,62,205,8,114},{23,10,93,51,145,194,208,155,179,44,131,167},{34,168,195,24,80,11,156,146,180,52,132,94,117},{95,196,147,25,35,53,209,181,106,118},{158,54,170,107,198,72,183,81,66,134,211,97,13},{26,46,135,14,55,120,212,73,184,159,82,108,199},{15,148,56,67,109,171,0,185,160,27,136,121,98,83,47},{1,137,200,28,110,57,122,74,84,48,149,16},{38,30,124,86,161,150,99,188,4,49,58},{202,76,139,189,68,59,31,125,87,18,162,100,112},{203,151,126,174,60,5,140,163,88,39,32,101,77,190},{128,33,7,103,142,78,20,204,41,61,90,176,164},{56,63,65,57,60,59,61,62,66,64,58},{177,63,22,43,9,153,79,206,91,129,192,144,115,104},{56,63,65,57,60,59,61,62,66,64,58},{169,197,45,65,182,96,12,36,210,133,119,157,71},{158,54,170,107,198,72,183,81,66,134,211,97,13},{15,148,56,67,109,171,0,185,160,27,136,121,98,83,47},{202,76,139,189,68,59,31,125,87,18,162,100,112},{102,6,89,69,113,141,40,175,127,19,191},{154,207,130,70,178,193,166,105,92,116,64},{169,197,45,65,182,96,12,36,210,133,119,157,71},{158,54,170,107,198,72,183,81,66,134,211,97,13},{26,46,135,14,55,120,212,73,184,159,82,108,199},{1,137,200,28,110,57,122,74,84,48,149,16},{78,76,80,74,79,75,81,82,77},{202,76,139,189,68,59,31,125,87,18,162,100,112},{203,151,126,174,60,5,140,163,88,39,32,101,77,190},{128,33,7,103,142,78,20,204,41,61,90,176,164},{177,63,22,43,9,153,79,206,91,129,192,144,115,104},{34,168,195,24,80,11,156,146,180,52,132,94,117},{158,54,170,107,198,72,183,81,66,134,211,97,13},{26,46,135,14,55,120,212,73,184,159,82,108,199},{15,148,56,67,109,171,0,185,160,27,136,121,98,83,47},{93,95,86,89,85,96,84,90,88,92,91,87,94,97,83},{93,95,86,89,85,96,84,90,88,92,91,87,94,97,83},{93,95,86,89,85,96,84,90,88,92,91,87,94,97,83},{93,95,86,89,85,96,84,90,88,92,91,87,94,97,83},{93,95,86,89,85,96,84,90,88,92,91,87,94,97,83},{93,95,86,89,85,96,84,90,88,92,91,87,94,97,83},{93,95,86,89,85,96,84,90,88,92,91,87,94,97,83},{93,95,86,89,85,96,84,90,88,92,91,87,94,97,83},{93,95,86,89,85,96,84,90,88,92,91,87,94,97,83},{23,10,93,51,145,194,208,155,179,44,131,167},{93,95,86,89,85,96,84,90,88,92,91,87,94,97,83},{93,95,86,89,85,96,84,90,88,92,91,87,94,97,83},{93,95,86,89,85,96,84,90,88,92,91,87,94,97,83},{93,95,86,89,85,96,84,90,88,92,91,87,94,97,83},{15,148,56,67,109,171,0,185,160,27,136,121,98,83,47},{38,30,124,86,161,150,99,188,4,49,58},{202,76,139,189,68,59,31,125,87,18,162,100,112},{203,151,126,174,60,5,140,163,88,39,32,101,77,190},{102,6,89,69,113,141,40,175,127,19,191},{128,33,7,103,142,78,20,204,41,61,90,176,164},{177,63,22,43,9,153,79,206,91,129,192,144,115,104},{154,207,130,70,178,193,166,105,92,116,64},{103,107,102,99,105,101,100,108,98,106,104},{158,54,107,170,198,72,183,81,66,134,211,97,13},{26,46,135,14,55,120,212,73,184,159,82,108,199},{15,148,56,67,109,171,0,185,160,27,136,121,98,83,47},{1,137,200,28,110,57,122,74,84,48,149,16},{111,110,113,109,120,119,116,112,115,114,117,118},{202,76,139,189,68,59,31,125,87,18,162,100,112},{102,6,89,69,113,141,40,175,127,19,191},{50,21,42,143,152,165,62,205,8,114},{177,63,22,43,9,153,79,206,91,129,192,144,115,104},{154,207,130,70,178,193,166,105,92,116,64},{34,168,195,24,80,11,156,146,180,52,132,94,117},{111,110,113,109,120,119,116,112,115,114,117,118},{169,197,45,65,182,96,12,36,210,133,119,157,71},{26,46,135,14,55,120,212,73,184,159,82,108,199},{128,124,123,126,135,122,130,133,131,125,127,129,121,132,134},{128,124,123,126,135,122,130,133,131,125,127,129,121,132,134},{128,124,123,126,135,122,130,133,131,125,127,129,121,132,134},{128,124,123,126,135,122,130,133,131,125,127,129,121,132,134},{128,124,123,126,135,122,130,133,131,125,127,129,121,132,134},{128,124,123,126,135,122,130,133,131,125,127,129,121,132,134},{128,124,123,126,135,122,130,133,131,125,127,129,121,132,134},{128,124,123,126,135,122,130,133,131,125,127,129,121,132,134},{128,124,123,126,135,122,130,133,131,125,127,129,121,132,134},{128,124,123,126,135,122,130,133,131,125,127,129,121,132,134},{23,10,93,51,145,194,208,155,179,44,131,167},{128,124,123,126,135,122,130,133,131,125,127,129,121,132,134},{128,124,123,126,135,122,130,133,131,125,127,129,121,132,134},{128,124,123,126,135,122,130,133,131,125,127,129,121,132,134},{128,124,123,126,135,122,130,133,131,125,127,129,121,132,134},{15,148,56,67,109,171,0,185,160,27,136,121,98,83,47},{1,137,200,28,110,57,122,74,84,48,149,16},{137,145,147,142,143,141,139,140,146,138,136,144},{137,145,147,142,143,141,139,140,146,138,136,144},{203,151,126,174,60,5,140,163,88,39,32,101,77,190},{137,145,147,142,143,141,139,140,146,138,136,144},{128,33,7,103,142,78,20,204,41,61,90,176,164},{137,145,147,142,143,141,139,140,146,138,136,144},{177,63,22,43,9,153,79,206,91,129,192,144,115,104},{23,10,93,51,145,194,208,155,179,44,131,167},{34,168,195,24,80,11,156,146,180,52,132,94,117},{137,145,147,142,143,141,139,140,146,138,136,144},{15,148,56,67,109,171,0,185,160,27,136,121,98,83,47},{158,148,154,155,151,152,153,150,156,159,157,149},{158,148,154,155,151,152,153,150,156,159,157,149},{158,148,154,155,151,152,153,150,156,159,157,149},{158,148,154,155,151,152,153,150,156,159,157,149},{177,63,22,43,9,153,79,206,91,129,192,144,115,104},{158,148,154,155,151,152,153,150,156,159,157,149},{23,10,93,51,145,194,208,155,179,44,131,167},{158,148,154,155,151,152,153,150,156,159,157,149},{158,148,154,155,151,152,153,150,156,159,157,149},{158,148,154,155,151,152,153,150,156,159,157,149},{158,148,154,155,151,152,153,150,156,159,157,149},{15,148,56,67,109,171,0,185,160,27,136,121,98,83,47},{38,30,124,86,161,150,99,188,4,49,58},{202,76,139,189,68,59,31,125,87,18,162,100,112},{203,151,126,174,60,5,140,163,88,39,32,101,77,190},{128,33,7,103,142,78,20,204,41,61,90,176,164},{168,169,170,161,166,163,160,165,162,164,167},{168,169,170,161,166,163,160,165,162,164,167},{23,10,93,51,145,194,208,155,179,44,131,167},{34,168,195,24,80,11,156,146,180,52,132,94,117},{169,197,45,65,182,96,12,36,210,133,119,157,71},{158,54,170,107,198,72,183,81,66,134,211,97,13},{15,148,56,67,109,171,0,185,160,27,136,121,98,83,47},{177,179,182,174,172,171,178,175,183,184,180,173,181,176},{177,179,182,174,172,171,178,175,183,184,180,173,181,176},{177,179,182,174,172,171,178,175,183,184,180,173,181,176},{177,179,182,174,172,171,178,175,183,184,180,173,181,176},{128,33,7,103,142,78,20,204,41,61,90,176,164},{177,63,22,43,9,153,79,206,91,129,192,144,115,104},{177,179,182,174,172,171,178,175,183,184,180,173,181,176},{23,10,93,51,145,194,208,155,179,44,131,167},{177,179,182,174,172,171,178,175,183,184,180,173,181,176},{177,179,182,174,172,171,178,175,183,184,180,173,181,176},{169,197,45,65,182,96,12,36,210,133,119,157,71},{177,179,182,174,172,171,178,175,183,184,180,173,181,176},{177,179,182,174,172,171,178,175,183,184,180,173,181,176},{195,197,196,194,198,188,185,189,193,187,192,190,186,199,191},{195,197,196,194,198,188,185,189,193,187,192,190,186,199,191},{195,197,196,194,198,188,185,189,193,187,192,190,186,199,191},{195,197,196,194,198,188,185,189,193,187,192,190,186,199,191},{195,197,196,194,198,188,185,189,193,187,192,190,186,199,191},{195,197,196,194,198,188,185,189,193,187,192,190,186,199,191},{195,197,196,194,198,188,185,189,193,187,192,190,186,199,191},{195,197,196,194,198,188,185,189,193,187,192,190,186,199,191},{195,197,196,194,198,188,185,189,193,187,192,190,186,199,191},{23,10,93,51,145,194,208,155,179,44,131,167},{195,197,196,194,198,188,185,189,193,187,192,190,186,199,191},{195,197,196,194,198,188,185,189,193,187,192,190,186,199,191},{195,197,196,194,198,188,185,189,193,187,192,190,186,199,191},{195,197,196,194,198,188,185,189,193,187,192,190,186,199,191},{195,197,196,194,198,188,185,189,193,187,192,190,186,199,191},{203,200,202,208,207,201,204,210,212,206,205,209,211},{203,200,202,208,207,201,204,210,212,206,205,209,211},{203,200,202,208,207,201,204,210,212,206,205,209,211},{203,200,202,208,207,201,204,210,212,206,205,209,211},{128,33,7,103,142,78,20,204,41,61,90,176,164},{203,200,202,208,207,201,204,210,212,206,205,209,211},{177,63,22,43,9,153,79,206,91,129,192,144,115,104},{203,200,202,208,207,201,204,210,212,206,205,209,211},{23,10,93,51,145,194,208,155,179,44,131,167},{203,200,202,208,207,201,204,210,212,206,205,209,211},{203,200,202,208,207,201,204,210,212,206,205,209,211},{203,200,202,208,207,201,204,210,212,206,205,209,211},{203,200,202,208,207,201,204,210,212,206,205,209,211}];
nr_cliques=213;
